
  12    4
  10   10   10   10

   0   0   0   0   0   4 2 3 5 8 
   3  10  10  10  10   3 11 10 6 
   4  10  10  10  10   1 4 
   1  10  10  10  10   3 11 10 7 
   1  10  10  10  10   3 11 10 7 
  10  10  10  10  10   1 7 
   6  10  10  10  10   1 9 
  10  10  10  10  10   1 9 
   7  10  10  10  10   1 12
   2  10  10  10  10   1 12
   8  10  10  10  10   1 12
   0   0   0   0   0   0 
